
Gurobi 11.0.1 (win64) logging started Mon Apr  1 12:41:35 2024

Set parameter LogFile to value "C:\Projetos\Job_Rotation_Algorithms\Outputs\GurobiLogs\gurobi_log-output-38_hes-c167-CostaMirallesModel-NoExtraConstraint-2.log"
Gurobi Optimizer version 11.0.1 build v11.0.1rc0 (win64 - Windows 10.0 (19045.2))

CPU model: 11th Gen Intel(R) Core(TM) i7-1165G7 @ 2.80GHz, instruction set [SSE2|AVX|AVX2|AVX512]
Thread count: 4 physical cores, 8 logical processors, using up to 1 threads


Gurobi 11.0.1 (win64) logging started Mon Apr  1 21:29:30 2024

Set parameter LogFile to value "C:\Projetos\Job_Rotation_Algorithms\Outputs\GurobiLogs\gurobi_log-output-38_hes-c167-CostaMirallesModel-NoExtraConstraint-2.log"
Gurobi Optimizer version 11.0.1 build v11.0.1rc0 (win64 - Windows 10.0 (19045.2))

CPU model: 11th Gen Intel(R) Core(TM) i7-1165G7 @ 2.80GHz, instruction set [SSE2|AVX|AVX2|AVX512]
Thread count: 4 physical cores, 8 logical processors, using up to 1 threads


Gurobi 11.0.1 (win64) logging started Thu Apr  4 23:24:45 2024

Set parameter LogFile to value "C:\Projetos\Job_Rotation_Algorithms\Outputs\GurobiLogs\gurobi_log-output-38_hes-c167-CostaMirallesModel-NoExtraConstraint-2.log"
Gurobi Optimizer version 11.0.1 build v11.0.1rc0 (win64 - Windows 10.0 (19045.2))

CPU model: 11th Gen Intel(R) Core(TM) i7-1165G7 @ 2.80GHz, instruction set [SSE2|AVX|AVX2|AVX512]
Thread count: 4 physical cores, 8 logical processors, using up to 1 threads


Gurobi 11.0.1 (win64) logging started Sat Apr  6 08:30:16 2024

Set parameter LogFile to value "C:\Projetos\Job_Rotation_Algorithms\Outputs\GurobiLogs\gurobi_log-output-38_hes-c167-CostaMirallesModel-NoExtraConstraint-2.log"
Gurobi Optimizer version 11.0.1 build v11.0.1rc0 (win64 - Windows 10.0 (19045.2))

CPU model: 11th Gen Intel(R) Core(TM) i7-1165G7 @ 2.80GHz, instruction set [SSE2|AVX|AVX2|AVX512]
Thread count: 4 physical cores, 8 logical processors, using up to 1 threads

WLS license 2390832 - registered to Bitka Analytics
Optimize a model with 479 rows, 934 columns and 7566 nonzeros
Model fingerprint: 0x73048468
Variable types: 2 continuous, 932 integer (932 binary)
Coefficient statistics:
  Matrix range     [1e+00, 2e+02]
  Objective range  [1e+00, 1e+00]
  Bounds range     [1e+00, 3e+02]
  RHS range        [1e+00, 3e+02]
Presolve removed 135 rows and 89 columns
Presolve time: 0.02s
Presolved: 344 rows, 845 columns, 5186 nonzeros
Variable types: 0 continuous, 845 integer (844 binary)

Root simplex log...

Iteration    Objective       Primal Inf.    Dual Inf.      Time
       0    1.0000000e+02   2.940000e+02   0.000000e+00     19s
     404    5.6000000e+01   0.000000e+00   0.000000e+00     19s

Root relaxation: objective 5.600000e+01, 404 iterations, 0.00 seconds (0.00 work units)

    Nodes    |    Current Node    |     Objective Bounds      |     Work
 Expl Unexpl |  Obj  Depth IntInf | Incumbent    BestBd   Gap | It/Node Time

     0     0   56.00000    0   15          -   56.00000      -     -   18s
     0     0   56.00000    0   91          -   56.00000      -     -   18s
     0     0   56.00000    0   83          -   56.00000      -     -   18s
     0     0   56.00000    0   18          -   56.00000      -     -   18s
     0     0   56.00000    0   39          -   56.00000      -     -   18s
     0     0   56.00000    0   22          -   56.00000      -     -   18s
     0     0   56.00000    0   46          -   56.00000      -     -   18s
     0     0   56.00000    0   37          -   56.00000      -     -   18s
     0     0   56.00000    0   67          -   56.00000      -     -   18s
     0     0   56.00000    0   35          -   56.00000      -     -   18s
     0     0   56.00000    0   23          -   56.00000      -     -   18s
     0     2   56.00000    0   21          -   56.00000      -     -   18s
   465   111   55.65238   10  118          -   56.00000      -  79.9   20s
H 1268   240                      45.0000000   56.00000  24.4%  41.0   24s
* 1271   223              27      46.0000000   56.00000  21.7%  41.0   24s
H 1273   207                      47.0000000   56.00000  19.1%  40.9   24s
  1365   200   56.00000   29   51   47.00000   56.00000  19.1%  53.4   25s
* 1533   152              40      48.0000000   56.00000  16.7%  65.9   26s
H 1563   131                      49.0000000   56.00000  14.3%  66.8   26s
* 1898    92              31      50.0000000   56.00000  12.0%  82.7   28s
  2175    79   51.57801   30   63   50.00000   55.95447  11.9%  88.5   30s

Cutting planes:
  Cover: 12
  Clique: 16
  MIR: 1
  Flow cover: 5
  GUB cover: 11
  Zero half: 3
  RLT: 6

Explored 2631 nodes (310299 simplex iterations) in 31.38 seconds (12.93 work units)
Thread count was 1 (of 8 available processors)

Solution count 6: 50 49 48 ... 45

Optimal solution found (tolerance 1.00e-03)
Best objective 5.000000000000e+01, best bound 5.000000000000e+01, gap 0.0000%
